This is Ipopt version 3.12.13, running with linear solver ma57.

Number of nonzeros in equality constraint Jacobian...:        0
Number of nonzeros in inequality constraint Jacobian.:    50544
Number of nonzeros in Lagrangian Hessian.............:       21

Total number of variables............................:        6
                     variables with only lower bounds:        0
                variables with lower and upper bounds:        6
                     variables with only upper bounds:        0
Total number of equality constraints.................:        0
Total number of inequality constraints...............:     8424
        inequality constraints with only lower bounds:        0
   inequality constraints with lower and upper bounds:        0
        inequality constraints with only upper bounds:     8424

iter    objective    inf_pr   inf_du lg(mu)  ||d||  lg(rg) alpha_du alpha_pr  ls
   0  8.6627776e-04 0.00e+00 7.86e+00   0.0 0.00e+00    -  0.00e+00 0.00e+00   0
   1  8.6390214e-04 0.00e+00 1.12e-02  -5.7 3.02e-04    -  9.89e-01 1.00e+00f  1
   2  2.1972267e-04 0.00e+00 1.61e-02  -1.8 4.78e+00    -  7.17e-02 5.09e-02f  1
   3  1.5449231e-04 0.00e+00 2.21e-04  -3.4 5.17e-02    -  9.90e-01 1.00e+00h  1
   4  1.0922107e-04 0.00e+00 2.31e-04  -4.7 2.15e-02    -  9.90e-01 1.00e+00h  1
   5  2.8477385e-05 0.00e+00 4.81e-05  -4.9 2.77e-02    -  9.91e-01 1.00e+00h  1
   6  3.6021296e-06 0.00e+00 6.34e-06  -5.4 2.32e-02    -  9.95e-01 1.00e+00h  1
   7  1.7920710e-08 0.00e+00 1.92e-05  -7.5 1.08e-02    -  9.08e-01 1.00e+00h  1
   8  2.4990122e-11 0.00e+00 1.45e-09  -8.5 8.56e-04    -  1.00e+00 1.00e+00h  1

Number of Iterations....: 8

                                   (scaled)                 (unscaled)
Objective...............:   2.4990121855226298e-11    2.4990121855226298e-11
Dual infeasibility......:   1.4530597072252447e-09    1.4530597072252447e-09
Constraint violation....:   0.0000000000000000e+00    0.0000000000000000e+00
Complementarity.........:   4.5039814488963697e-08    4.5039814488963697e-08
Overall NLP error.......:   4.5039814488963697e-08    4.5039814488963697e-08


Number of objective function evaluations             = 9
Number of objective gradient evaluations             = 9
Number of equality constraint evaluations            = 0
Number of inequality constraint evaluations          = 9
Number of equality constraint Jacobian evaluations   = 0
Number of inequality constraint Jacobian evaluations = 9
Number of Lagrangian Hessian evaluations             = 8
Total CPU secs in IPOPT (w/o function evaluations)   =      0.068
Total CPU secs in NLP function evaluations           =      0.058

EXIT: Optimal Solution Found.
